&control
         calculation = 'scf'
              prefix = 'ws2'
          pseudo_dir = '/home/acad/ulg-matnan/pmelo/pseudo/so'
          wf_collect = .true.
         max_seconds = 35100
        restart_mode = 'from_scratch'
/&end
&system
    force_symmorphic = .true.
             ecutwfc = 110
         occupations = 'fixed'
               ibrav = 4
            lspinorb = .true.
                 nat = 27
            noncolin = .true.
                ntyp = 3
           celldm(1) = 18.06779441199239
           celldm(3) = 1.2707815340633335
/&end
&electrons
            conv_thr = 1e-10
/&end
ATOMIC_SPECIES
   S   32.065                S.upf
   W   183.84                W.upf
   Mo   95.94               Mo.upf
ATOMIC_POSITIONS { angstrom }
W        1.591724201   0.923871874   6.075010037
W        4.782317453   0.923872027   6.075010037
Mo       7.967553262   0.920012262   6.075010037
W        0.002449125   3.676577224   6.075010037
W        3.187020874   3.680053923   6.075010037
W        6.371592704   3.676577507   6.075010037
W       -1.593511301   6.440095460   6.075010037
W        1.597745910   6.439712307   6.075010037
W        4.776296211   6.439712392   6.075010037
S        0.001528989   1.840909329   7.645406502
S        3.187020601   1.841216320   7.647404067
S        6.372512145   1.840909680   7.645406481
S       -1.593511616   4.597657442   7.645553081
S        1.594540665   4.599472801   7.647404095
S        4.779500816   4.599472961   7.647404067
S       -3.189109623   7.361314581   7.645553035
S        0.002086671   7.361314742   7.645553081
S        3.187020872   7.358343115   7.645406502
S        0.001528989   1.840909329   4.504613572
S        3.187020601   1.841216320   4.502616007
S        6.372512145   1.840909680   4.504613593
S       -1.593511616   4.597657442   4.504466993
S        1.594540665   4.599472801   4.502615979
S        4.779500816   4.599472961   4.502616007
S       -3.189109623   7.361314581   4.504467039
S        0.002086671   7.361314742   4.504466993
S        3.187020872   7.358343115   4.504613572
K_POINTS { automatic }
  9  9  1  0  0  0
